1080934
97,70,33,89,58,18,11,39,93,25,16,23,27,45,10,22,64,51,91,38,6,3,65,94,24,77,50,78,28,72,80,85,44,86,75,87,49,35,30,59,29,95,76,9,61,92,48,54,71,67,98,79,62,12,73,69,31,55,17,68,74,5,40,20,19,8,32,56,46,0,47,36,37,82,34,96,41,90,43,52,7,88,84,2,4,63,1,26,66,60,57,81,15,14,13,83,21,42,53,97